Comps = {frontend0, frontend1, frontend2, backend0, backend1, database0, database1};
mustComps = {frontend0, frontend1, frontend2};
Flavs = {tiny, medium, large};
Nodes = {n1, n2, n3, n4};
CRes = {CPU, RAM, storage, bwIn, bwOut};
NRes = {ssl, fwall, encr, avail, latency};
Flav = [{medium, large}, {medium, large}, {medium, large}, {tiny, medium, large}, {tiny, medium, large}, {large}, {large}];
Uses = [{backend0}, {backend0}, {backend1}, {backend0}, {backend0}, {backend1}, {}, {}, {database0}, {database0}, {database0}, {database0}, {}, {}];
MAX_BOUND = 1000000;

worstBounds = [0, 0, 0, 0, 0, 0, 0, 0, 0, MAX_BOUND];
bestBounds = [MAX_BOUND - i | i in worstBounds];

comReq = array2d(CompFlavs, Res, [
  4, 477, 353, 591, 205, 0, 0, 1, 95, MAX_BOUND,
  2, 270, 309, 422, 226, 0, 1, 1, 96, MAX_BOUND,
  8, 224, 350, 836, 500, 0, 0, 0, 95, MAX_BOUND,
  2, 272, 335, 894, 937, 0, 1, 0, 95, MAX_BOUND,
  2, 270, 325, 981, 228, 0, 1, 1, 95, MAX_BOUND,
  2, 430, 291, 661, 872, 1, 0, 1, 96, MAX_BOUND,
  2, 445, 365, 444, 355, 0, 1, 1, 96, MAX_BOUND,
  8, 457, 401, 876, 294, 1, 1, 1, 95, MAX_BOUND,
  2, 450, 216, 670, 649, 1, 0, 0, 96, MAX_BOUND,
  2, 392, 439, 634, 883, 0, 0, 1, 96, MAX_BOUND,
  8, 469, 200, 413, 874, 1, 1, 1, 96, MAX_BOUND,
  4, 448, 303, 916, 335, 1, 0, 1, 97, MAX_BOUND,
  2, 378, 312, 902, 924, 1, 1, 1, 96, MAX_BOUND,
  2, 210, 378, 382, 518, 1, 1, 0, 97, MAX_BOUND,
]);

nodeCap = array2d(Nodes0, Res, [bestBounds[r] | r in Res] ++ [
  16, 72455, 227000, 17450, 22240, 1, 1, 1, 99, 0,
  16, 30566, 962909, 13275, 22186, 1, 1, 1, 98, 0,
  32, 127449, 481035, 15090, 11209, 0, 0, 1, 99, 0,
  16, 32127, 78060, 23685, 16144, 1, 1, 1, 98, 0,
]);

cost = array2d(Nodes0, Res, [
  0, 0, 0, 0, 0, 0, 0, 0, 0, 0, % no node
  18, 7, 16, 0, 0, 0, 0, 0, 0, 0,
  17, 5, 17, 0, 0, 0, 0, 0, 0, 0,
  16, 9, 18, 0, 0, 0, 0, 0, 0, 0,
  12, 10, 24, 0, 0, 0, 0, 0, 0, 0,
]);

cons = array2d(Nodes0, Res, [
  0, 0, 0, 0, 0, 0, 0, 0, 0, 0, % no node
  16, 27, 28, 0, 0, 0, 0, 0, 0, 0,
  49, 6, 22, 0, 0, 0, 0, 0, 0, 0,
  50, 27, 50, 0, 0, 0, 0, 0, 0, 0,
  2, 9, 22, 0, 0, 0, 0, 0, 0, 0,
]);

costWeight = 0;
consWeight = 1;

costBudget = 35108;
consBudget = 67783;

depReq = array3d(Comps, Comps, Res, [
  if c1 = frontend2 /\ c2 = backend0 /\ r = N(avail) then
    96
  elseif c1 = frontend0 /\ c2 = backend0 /\ r = N(avail) then
    97
  elseif c1 = frontend2 /\ c2 = backend1 /\ r = N(avail) then
    96
  elseif c1 = frontend0 /\ c2 = backend1 /\ r = N(avail) then
    95
  elseif c1 = frontend1 /\ c2 = backend1 /\ r = N(avail) then
    97
  elseif c1 = frontend1 /\ c2 = backend0 /\ r = N(avail) then
    96
  else
    worstBounds[r]
  endif | c1 in Comps, c2 in Comps, r in Res]);

linkCap = array3d(Nodes0, Nodes0, Res, [
  if ni = 0 \/ nj = 0 then
    bestBounds[r]
  elseif ni = nj /\ r = N(avail) then
    nodeCap[ni,r]
  elseif {ni, nj} = {n1, n4} /\ r = N(avail) then
    99
  elseif {ni, nj} = {n1, n3} /\ r = N(avail) then
    99
  elseif {ni, nj} = {n1, n2} /\ r = N(avail) then
    99
  elseif {ni, nj} = {n3, n4} /\ r = N(avail) then
    98
  elseif {ni, nj} = {n2, n4} /\ r = N(avail) then
    99
  elseif {ni, nj} = {n2, n3} /\ r = N(avail) then
    99
  else
    worstBounds[r]
  endif | ni in Nodes0, nj in Nodes0, r in Res]);

imp = array2d(Comps, Flavs, [
  2, 3, 5,
  1, 5, 10,
  4, 6, 7,
  4, 6, 8,
  1, 7, 8,
  1, 3, 8,
  1, 4, 7,
]);

